nNurses = 162;
nHours = 27;
minHours = 5;
maxHours = 12;
maxConsec = 6;
maxPresence = 22;
demand = [5, 8, 12, 14, 9, 8, 9, 14, 12, 13, 17, 15, 12, 16, 13, 9, 13, 15, 16, 17, 12, 15, 19, 21, 16, 15, 13];
